sat
(:max-memory         18.05
 :memory             18.05
 :nlsat-propagations 9
 :nlsat-stages       4
 :num-allocs         22629
 :rlimit-count       4225
 :time               0.00
 :total-time         0.01)
